objective value:                                  -21
t_n_8                                               1 	(obj:-1)
t_n_184                                             1 	(obj:-1)
t_n_249                                             1 	(obj:-1)
t_n_260                                             1 	(obj:-1)
t_n_301                                             1 	(obj:-1)
t_n_339                                             1 	(obj:-1)
t_n_420                                             1 	(obj:-1)
t_n_450                                             1 	(obj:-1)
t_n_542                                             1 	(obj:-1)
t_n_577                                             1 	(obj:-1)
t_n_579                                             1 	(obj:-1)
t_n_586                                             1 	(obj:-1)
t_n_612                                             1 	(obj:-1)
t_n_613                                             1 	(obj:-1)
t_n_619                                             1 	(obj:-1)
t_n_733                                             1 	(obj:-1)
t_n_784                                             1 	(obj:-1)
t_n_877                                             1 	(obj:-1)
t_n_944                                             1 	(obj:-1)
t_n_988                                             1 	(obj:-1)
t_n_996                                             1 	(obj:-1)
